1 1 -2 0
1 -1 3 0
1 -4 5 0
1 -4 6 0
1 -6 -7 0
1 2 -8 0
1 8 4 0
1 9 -3 0
1 -10 -11 0
1 12 13 0
1 5 -4 0
1 -5 12 0
1 3 11 0
1 3 -13 0
1 11 1 0
1 -14 -15 0
1 -16 -17 0
1 -15 -18 0
1 -19 14 0
1 19 20 0
1 21 22 0
1 23 24 0
1 23 25 0
1 26 -27 0
1 24 -28 0
1 -25 29 0
1 -25 28 0
1 -30 31 0
1 32 27 0
1 33 34 0
1 -33 27 0
1 -35 -25 0
1 -36 -27 0
1 36 -37 0
1 -38 29 0
1 -38 39 0
1 -38 40 0
1 -34 -32 0
1 -41 7 0
1 41 -42 0
1 -7 29 0
1 37 -43 0
1 -37 44 0
1 -37 42 0
1 -37 16 0
1 -44 -43 0
1 44 -45 0
1 44 -3 0
1 -44 27 0
1 44 -46 0
1 -47 13 0
1 47 -37 0
1 -47 -41 0
1 -48 44 0
1 -48 -35 0
1 42 -49 0
1 -13 -21 0
1 -13 50 0
1 51 5 0
1 -51 47 0
1 -51 -13 0
1 -51 -52 0
1 53 54 0
1 20 -55 0
1 -20 -45 0
1 20 48 0
1 -20 49 0
1 43 -56 0
1 43 -44 0
1 43 -53 0
1 43 -6 0
1 -43 57 0
1 -43 20 0
1 52 58 0
1 -59 -55 0
1 -59 -22 0
1 60 -61 0
1 60 -62 0
1 -57 -63 0
1 62 -20 0
1 -55 -64 0
1 -55 -60 0
1 -61 65 0
1 66 60 0
1 -67 68 0
1 -67 -60 0
1 67 -69 0
1 63 -69 0
1 70 71 0
1 -70 -69 0
1 -72 -73 0
1 -72 74 0
1 75 -72 0
1 76 77 0
1 78 -79 0
1 -78 80 0
1 -77 74 0
1 81 -82 0
1 -83 -84 0
1 83 82 0
1 83 85 0
1 86 87 0
1 -86 76 0
1 86 -74 0
1 -86 -82 0
1 82 75 0
1 -88 89 0
1 -74 72 0
1 28 -24 0
1 -28 -34 0
1 29 25 0
1 -90 -91 0
1 -90 -34 0
1 -87 -92 0
1 -85 -29 0
1 -85 93 0
1 -50 -94 0
1 -95 -87 0
1 -95 38 0
1 -95 -50 0
1 95 -51 0
1 -96 -46 0
1 -49 -42 0
1 -97 -24 0
1 -97 -98 0
1 -97 91 0
1 -91 -99 0
1 -100 -98 0
1 -100 101 0
1 -94 -30 0
1 -102 97 0
1 102 -59 0
1 -103 -91 0
1 -104 105 0
1 105 -101 0
1 -106 58 0
1 -106 107 0
1 -108 109 0
1 108 -103 0
1 -39 109 0
1 39 104 0
1 39 -110 0
1 -39 -105 0
1 -58 111 0
1 -58 112 0
1 -112 113 0
1 114 -115 0
1 -114 -116 0
1 114 -117 0
1 118 -105 0
1 -117 119 0
1 111 -114 0
1 -111 -107 0
1 -116 120 0
1 116 -121 0
1 -122 -123 0
1 122 -124 0
1 122 125 0
1 56 43 0
1 -56 126 0
1 56 -127 0
1 -128 129 0
1 -124 130 0
1 124 -70 0
1 131 71 0
1 -132 55 0
1 -133 -124 0
1 -133 -134 0
1 -130 135 0
1 130 136 0
1 -137 127 0
1 138 132 0
1 139 -140 0
1 -140 136 0
1 -71 -141 0
1 142 79 0
1 142 -143 0
1 144 -145 0
1 146 -147 0
1 -146 -148 0
1 149 -150 0
1 -151 142 0
1 -152 146 0
1 153 -154 0
1 -153 146 0
1 -155 -146 0
1 155 145 0
1 -155 156 0
1 -157 158 0
1 156 -159 0
1 -156 -160 0
1 154 -155 0
1 154 153 0
1 -145 -155 0
1 145 -161 0
1 -145 -162 0
1 -163 164 0
1 163 -156 0
1 -164 -165 0
1 164 -76 0
1 164 74 0
1 166 -158 0
1 -166 167 0
1 -166 90 0
1 166 -156 0
1 158 -168 0
1 -158 -169 0
1 -165 93 0
1 -165 -163 0
1 -167 -155 0
1 -170 -166 0
1 93 171 0
1 -93 -82 0
1 89 -74 0
1 89 82 0
1 -89 85 0
1 172 173 0
1 172 -174 0
1 -175 176 0
1 -177 -178 0
1 -92 85 0
1 173 179 0
1 -173 94 0
1 -173 -180 0
1 180 -113 0
1 -180 82 0
1 181 182 0
1 181 183 0
1 110 179 0
1 -110 -107 0
1 -179 -120 0
1 184 -110 0
1 -185 -115 0
1 185 -186 0
1 -187 -185 0
1 121 188 0
1 -189 111 0
1 120 99 0
1 -188 -109 0
1 188 -97 0
1 -99 119 0
1 -99 115 0
1 -99 -91 0
1 190 191 0
1 190 -192 0
1 190 -193 0
1 -194 195 0
1 119 196 0
1 119 -128 0
1 197 198 0
1 197 -199 0
1 -199 200 0
1 -196 -189 0
1 -196 -201 0
1 -202 127 0
1 -203 189 0
1 203 197 0
1 -127 204 0
1 -205 202 0
1 204 -205 0
1 204 -206 0
1 -198 -207 0
1 200 208 0
1 200 -209 0
1 200 123 0
1 200 -210 0
1 141 211 0
1 -141 -212 0
1 -213 71 0
1 -214 -215 0
1 -214 -122 0
1 -214 206 0
1 215 141 0
1 -216 217 0
1 -216 218 0
1 -219 -207 0
1 219 220 0
1 -221 -139 0
1 -222 -71 0
1 -223 -215 0
1 -224 225 0
1 226 -213 0
1 -226 227 0
1 228 229 0
1 228 221 0
1 -230 -222 0
1 230 -227 0
1 231 224 0
1 -231 223 0
1 -232 225 0
1 233 -228 0
1 233 234 0
1 -235 225 0
1 -235 236 0
1 234 225 0
1 -225 -237 0
1 225 -232 0
1 -225 223 0
1 -236 238 0
1 -236 -239 0
1 -236 -235 0
1 240 -227 0
1 -240 233 0
1 -241 -242 0
1 -143 241 0
1 -143 243 0
1 243 241 0
1 243 143 0
1 -243 -150 0
1 -243 -244 0
1 -245 241 0
1 245 246 0
1 -245 -244 0
1 -247 -248 0
1 249 152 0
1 150 -250 0
1 -150 151 0
1 251 252 0
1 252 -253 0
1 254 -255 0
1 -254 -256 0
1 255 -257 0
1 -258 259 0
1 -147 -145 0
1 260 -261 0
1 -262 -263 0
1 264 -265 0
1 264 266 0
1 261 267 0
1 261 -268 0
1 269 -253 0
1 -269 270 0
1 -160 271 0
1 -160 154 0
1 -159 170 0
1 -159 272 0
1 -159 -145 0
1 -273 -272 0
1 -273 274 0
1 -271 -275 0
1 -271 -273 0
1 -272 276 0
1 -272 268 0
1 -263 151 0
1 -263 277 0
1 275 278 0
1 279 -280 0
1 279 281 0
1 -282 -169 0
1 282 278 0
1 -176 -283 0
1 284 -285 0
1 284 282 0
1 -284 -286 0
1 280 287 0
1 -280 288 0
1 -280 285 0
1 278 -289 0
1 162 -290 0
1 285 183 0
1 -183 -285 0
1 291 292 0
1 -286 -293 0
1 286 284 0
1 283 182 0
1 -283 -286 0
1 -283 -176 0
1 294 -291 0
1 -295 -291 0
1 292 282 0
1 292 -286 0
1 -296 -297 0
1 298 299 0
1 -300 296 0
1 300 291 0
1 300 301 0
1 302 -303 0
1 302 -304 0
1 -293 305 0
1 -293 -304 0
1 193 -184 0
1 191 -306 0
1 -192 191 0
1 -192 -306 0
1 -192 307 0
1 308 -309 0
1 -297 298 0
1 -310 -193 0
1 310 311 0
1 310 -309 0
1 312 -313 0
1 -312 -314 0
1 312 -315 0
1 -312 310 0
1 195 188 0
1 -195 307 0
1 316 -317 0
1 318 317 0
1 318 -319 0
1 -320 -179 0
1 320 321 0
1 -320 -192 0
1 -320 -211 0
1 307 191 0
1 -307 -209 0
1 317 -322 0
1 -317 -318 0
1 306 313 0
1 -306 195 0
1 -211 -320 0
1 211 307 0
1 -211 -200 0
1 -323 -319 0
1 -324 207 0
1 324 220 0
1 325 318 0
1 326 327 0
1 -326 -323 0
1 -326 316 0
1 -319 209 0
1 -207 222 0
1 207 -198 0
1 -207 -216 0
1 207 -328 0
1 -201 -329 0
1 -330 -202 0
1 -331 332 0
1 328 -333 0
1 -328 334 0
1 218 -214 0
1 218 -335 0
1 -336 337 0
1 337 338 0
1 -337 -335 0
1 -337 -339 0
1 -335 227 0
1 338 -340 0
1 341 -342 0
1 343 -344 0
1 343 -230 0
1 -227 -345 0
1 346 347 0
1 346 344 0
1 -348 -349 0
1 348 335 0
1 -345 350 0
1 -347 346 0
1 -347 -351 0
1 -347 337 0
1 -344 -348 0
1 -352 -227 0
1 353 354 0
1 -239 353 0
1 355 -356 0
1 355 357 0
1 -355 237 0
1 -355 358 0
1 -351 359 0
1 -229 360 0
1 -229 -348 0
1 -358 361 0
1 362 363 0
1 -363 237 0
1 -363 364 0
1 -365 357 0
1 360 366 0
1 364 -367 0
1 -237 351 0
1 366 -362 0
1 366 355 0
1 366 368 0
1 366 -360 0
1 357 -362 0
1 -357 369 0
1 357 368 0
1 357 363 0
1 -370 -371 0
1 372 -373 0
1 374 375 0
1 374 376 0
1 377 378 0
1 -377 379 0
1 248 379 0
1 -248 376 0
1 -379 -373 0
1 380 373 0
1 378 381 0
1 382 383 0
1 382 -384 0
1 382 -385 0
1 373 -386 0
1 -256 -381 0
1 -387 254 0
1 -387 -382 0
1 387 -388 0
1 -384 381 0
1 -389 246 0
1 -381 270 0
1 388 390 0
1 388 -391 0
1 392 393 0
1 253 -394 0
1 253 -395 0
1 253 396 0
1 -274 395 0
1 -274 -397 0
1 267 -395 0
1 -394 -398 0
1 -399 -245 0
1 399 400 0
1 -399 270 0
1 -399 387 0
1 399 268 0
1 396 391 0
1 -395 -401 0
1 -395 402 0
1 -266 272 0
1 -268 403 0
1 268 272 0
1 -268 399 0
1 404 -405 0
1 -404 -406 0
1 -276 407 0
1 276 408 0
1 397 -409 0
1 397 266 0
1 -397 -274 0
1 -397 -276 0
1 -405 -410 0
1 -405 404 0
1 -277 406 0
1 -277 -408 0
1 289 411 0
1 289 397 0
1 289 -412 0
1 -406 413 0
1 406 409 0
1 406 -290 0
1 -265 -288 0
1 -265 -404 0
1 -265 414 0
1 407 415 0
1 408 416 0
1 408 -409 0
1 408 -277 0
1 288 295 0
1 290 417 0
1 414 -418 0
1 414 265 0
1 419 420 0
1 -419 289 0
1 -421 289 0
1 422 -423 0
1 -422 -304 0
1 -422 418 0
1 -422 -412 0
1 -424 -425 0
1 -424 -426 0
1 424 -423 0
1 -303 423 0
1 418 315 0
1 -418 304 0
1 -427 -424 0
1 423 -428 0
1 423 -424 0
1 423 429 0
1 -430 431 0
1 -430 432 0
1 -301 -425 0
1 -301 -300 0
1 -315 427 0
1 315 312 0
1 -433 434 0
1 435 -436 0
1 437 -436 0
1 437 -303 0
1 -437 -295 0
1 -437 -438 0
1 -309 -317 0
1 -309 -305 0
1 313 -432 0
1 313 -439 0
1 440 -208 0
1 441 -442 0
1 -443 444 0
1 305 444 0
1 -305 -440 0
1 305 -445 0
1 446 -306 0
1 327 -439 0
1 -447 441 0
1 -447 -448 0
1 -447 449 0
1 -450 -451 0
1 448 -297 0
1 -311 452 0
1 -314 453 0
1 333 -322 0
1 332 453 0
1 -332 -326 0
1 332 -324 0
1 454 -448 0
1 -454 328 0
1 339 -322 0
1 339 -455 0
1 455 456 0
1 457 -307 0
1 457 -333 0
1 322 -456 0
1 -449 447 0
1 449 458 0
1 449 339 0
1 -459 460 0
1 -459 -331 0
1 -459 -461 0
1 -329 462 0
1 329 -201 0
1 329 -328 0
1 463 462 0
1 464 -465 0
1 -464 457 0
1 -460 359 0
1 -460 466 0
1 462 467 0
1 -461 -467 0
1 -354 468 0
1 -354 469 0
1 -354 334 0
1 -466 352 0
1 466 354 0
1 466 470 0
1 466 -469 0
1 466 239 0
1 -359 356 0
1 471 354 0
1 -470 472 0
1 470 -473 0
1 334 474 0
1 334 -466 0
1 361 349 0
1 361 344 0
1 361 475 0
1 476 358 0
1 -477 350 0
1 -477 465 0
1 478 -479 0
1 478 -361 0
1 -478 -359 0
1 480 -475 0
1 479 481 0
1 -482 369 0
1 -482 483 0
1 -369 -484 0
1 369 485 0
1 369 486 0
1 -369 -481 0
1 350 487 0
1 350 -345 0
1 481 -344 0
1 -484 -352 0
1 484 476 0
1 488 237 0
1 -488 364 0
1 488 -489 0
1 367 357 0
1 367 488 0
1 -490 491 0
1 490 492 0
1 -490 493 0
1 -494 -495 0
1 492 -487 0
1 -492 -369 0
1 -492 488 0
1 -491 496 0
1 -491 -492 0
1 497 -498 0
1 -495 -498 0
1 495 499 0
1 499 500 0
1 499 501 0
1 498 497 0
1 498 -490 0
1 502 -495 0
1 -503 382 0
1 -393 -504 0
1 -504 505 0
1 505 506 0
1 391 -383 0
1 -403 268 0
1 403 -391 0
1 -403 507 0
1 -508 -507 0
1 402 504 0
1 -402 507 0
1 -383 -403 0
1 383 509 0
1 -383 -510 0
1 -509 -511 0
1 509 402 0
1 -507 -403 0
1 507 -376 0
1 386 512 0
1 -386 508 0
1 -386 507 0
1 -386 402 0
1 401 -513 0
1 -398 277 0
1 -398 396 0
1 -514 -383 0
1 -514 390 0
1 515 -417 0
1 515 -402 0
1 -390 510 0
1 516 508 0
1 516 -517 0
1 516 -518 0
1 -519 520 0
1 519 512 0
1 -519 -515 0
1 -417 521 0
1 417 397 0
1 415 -407 0
1 -415 522 0
1 415 518 0
1 -523 -413 0
1 -400 523 0
1 -400 -524 0
1 -400 -417 0
1 400 -510 0
1 -413 422 0
1 -525 526 0
1 -525 522 0
1 -420 -400 0
1 -526 -525 0
1 -526 527 0
1 528 -428 0
1 528 -397 0
1 -528 -529 0
1 528 530 0
1 -410 -413 0
1 -522 -531 0
1 428 532 0
1 428 -301 0
1 428 -426 0
1 -533 532 0
1 534 430 0
1 -535 406 0
1 535 -432 0
1 -536 -537 0
1 532 -538 0
1 416 -525 0
1 -432 539 0
1 -432 437 0
1 -438 540 0
1 438 541 0
1 541 -542 0
1 -543 544 0
1 -539 538 0
1 545 -546 0
1 436 -547 0
1 548 547 0
1 -549 436 0
1 429 540 0
1 -431 444 0
1 -431 550 0
1 -551 -552 0
1 -553 554 0
1 -555 453 0
1 555 552 0
1 555 556 0
1 555 452 0
1 -552 -553 0
1 552 -555 0
1 -552 -458 0
1 -552 -557 0
1 558 -554 0
1 -558 -551 0
1 -558 -437 0
1 -558 -559 0
1 557 552 0
1 556 -560 0
1 458 -561 0
1 -560 451 0
1 560 458 0
1 -562 -563 0
1 562 564 0
1 -565 -553 0
1 -565 -566 0
1 468 455 0
1 456 -560 0
1 567 -568 0
1 567 461 0
1 -567 -467 0
1 467 569 0
1 -467 442 0
1 467 -570 0
1 -571 -572 0
1 -570 -573 0
1 574 456 0
1 -574 570 0
1 575 460 0
1 576 577 0
1 473 571 0
1 473 -568 0
1 -473 -470 0
1 -473 578 0
1 -569 -473 0
1 -568 -579 0
1 568 580 0
1 -577 -581 0
1 582 583 0
1 582 -480 0
1 472 -480 0
1 -472 -584 0
1 585 -583 0
1 586 587 0
1 586 -588 0
1 586 342 0
1 583 -589 0
1 578 576 0
1 578 585 0
1 -489 -590 0
1 -489 -478 0
1 591 367 0
1 493 592 0
1 -593 594 0
1 -593 595 0
1 -594 -591 0
1 594 590 0
1 590 -489 0
1 596 -585 0
1 -597 595 0
1 496 -598 0
1 496 -484 0
1 -496 -590 0
1 599 -500 0
1 -600 -601 0
1 -602 383 0
1 603 -604 0
1 -603 516 0
1 605 518 0
1 605 -606 0
1 -607 -608 0
1 607 -603 0
1 608 603 0
1 -608 -512 0
1 -609 605 0
1 -609 -610 0
1 609 513 0
1 -517 -604 0
1 517 611 0
1 -517 390 0
1 -610 612 0
1 610 517 0
1 610 613 0
1 511 614 0
1 611 603 0
1 -611 615 0
1 -611 517 0
1 -611 -518 0
1 -604 -609 0
1 -604 -615 0
1 -613 616 0
1 -613 522 0
1 -617 -618 0
1 619 -620 0
1 -621 -390 0
1 -621 -622 0
1 621 -623 0
1 622 -615 0
1 622 -620 0
1 -527 526 0
1 -624 532 0
1 624 -528 0
1 -624 527 0
1 -625 -626 0
1 -626 627 0
1 -627 625 0
1 628 520 0
1 628 629 0
1 628 630 0
1 628 631 0
1 -538 -537 0
1 -538 -535 0
1 -537 -627 0
1 546 539 0
1 -546 632 0
1 633 546 0
1 -634 -635 0
1 -634 -537 0
1 634 636 0
1 -634 637 0
1 -529 550 0
1 -638 632 0
1 632 639 0
1 640 -635 0
1 550 -641 0
1 550 642 0
1 643 -644 0
1 645 -640 0
1 -645 561 0
1 -641 -646 0
1 -641 -546 0
1 647 -645 0
1 647 648 0
1 559 -649 0
1 650 -651 0
1 -650 -645 0
1 -642 650 0
1 -648 539 0
1 -649 545 0
1 -649 -652 0
1 -563 565 0
1 563 653 0
1 -563 555 0
1 564 -642 0
1 -564 -653 0
1 564 -654 0
1 564 -544 0
1 566 655 0
1 -656 657 0
1 -653 -658 0
1 -653 659 0
1 -657 -549 0
1 -657 660 0
1 -661 566 0
1 661 -662 0
1 -661 656 0
1 -651 -663 0
1 651 563 0
1 658 -653 0
1 658 664 0
1 -658 -562 0
1 -658 -570 0
1 659 -442 0
1 665 -666 0
1 -667 -665 0
1 667 653 0
1 -668 -555 0
1 -655 669 0
1 -655 -659 0
1 -664 670 0
1 664 -566 0
1 670 -671 0
1 670 667 0
1 670 -664 0
1 573 -568 0
1 584 472 0
1 -581 672 0
1 581 673 0
1 669 -668 0
1 -674 -584 0
1 674 560 0
1 -666 -665 0
1 666 -669 0
1 -666 584 0
1 666 -592 0
1 673 675 0
1 672 573 0
1 580 666 0
1 -592 -676 0
1 -592 583 0
1 -592 -666 0
1 -592 677 0
1 592 -674 0
1 -589 -583 0
1 -589 -675 0
1 -589 -666 0
1 572 -678 0
1 -679 -579 0
1 -680 681 0
1 680 580 0
1 681 682 0
1 683 572 0
1 -683 -676 0
1 683 583 0
1 -683 684 0
1 -685 -686 0
1 -687 688 0
1 -678 689 0
1 -678 -596 0
1 -686 678 0
1 -688 -686 0
1 688 -678 0
1 -676 592 0
1 -684 -577 0
1 614 690 0
1 -691 -611 0
1 691 610 0
1 623 -692 0
1 -693 -692 0
1 -606 -694 0
1 -606 605 0
1 -606 623 0
1 -690 607 0
1 -620 -606 0
1 620 -695 0
1 631 -628 0
1 -631 -695 0
1 -696 697 0
1 694 698 0
1 -694 -696 0
1 -694 699 0
1 694 -700 0
1 695 -630 0
1 695 610 0
1 -699 694 0
1 -699 -620 0
1 -698 -701 0
1 698 -696 0
1 639 626 0
1 -639 -702 0
1 -639 632 0
1 -639 640 0
1 630 628 0
1 630 627 0
1 703 -704 0
1 -703 -638 0
1 -703 -632 0
1 -703 -705 0
1 706 704 0
1 706 -707 0
1 702 708 0
1 705 -621 0
1 705 696 0
1 -709 -703 0
1 -708 -704 0
1 -708 -641 0
1 -708 -710 0
1 -708 632 0
1 -711 -704 0
1 711 707 0
1 711 644 0
1 -712 -713 0
1 704 -706 0
1 -704 626 0
1 704 -703 0
1 -713 714 0
1 629 -637 0
1 715 -716 0
1 -715 -713 0
1 652 717 0
1 -652 -716 0
1 -636 718 0
1 636 719 0
1 -720 721 0
1 -720 -636 0
1 720 -715 0
1 720 -529 0
1 717 722 0
1 -723 -722 0
1 -723 -724 0
1 723 646 0
1 723 725 0
1 -721 658 0
1 -721 -724 0
1 -662 -721 0
1 -662 726 0
1 -727 661 0
1 728 652 0
1 728 -729 0
1 730 722 0
1 730 -715 0
1 730 718 0
1 726 731 0
1 -726 -718 0
1 663 651 0
1 -663 -732 0
1 -663 -733 0
1 -732 -670 0
1 732 728 0
1 671 -664 0
1 734 660 0
1 734 -735 0
1 736 -675 0
1 -736 -642 0
1 -737 675 0
1 737 -738 0
1 -737 -677 0
1 -733 -663 0
1 -739 -740 0
1 675 -589 0
1 741 742 0
1 -741 743 0
1 -660 -744 0
1 745 746 0
1 746 675 0
1 -746 -742 0
1 746 -747 0
1 -746 -738 0
1 748 660 0
1 -743 -741 0
1 -743 -747 0
1 749 682 0
1 -750 751 0
1 -710 752 0
1 710 -708 0
1 701 -698 0
1 701 637 0
1 753 754 0
1 754 755 0
1 -756 -757 0
1 758 753 0
1 758 690 0
1 -752 759 0
1 760 646 0
1 -760 709 0
1 -761 -762 0
1 -763 -755 0
1 755 724 0
1 -755 -764 0
1 -724 -765 0
1 724 766 0
1 764 724 0
1 767 -768 0
1 767 769 0
1 762 -770 0
1 -762 725 0
1 762 761 0
1 765 771 0
1 765 -722 0
1 -766 -724 0
1 766 768 0
1 -766 772 0
1 -766 -761 0
1 768 -772 0
1 722 730 0
1 -722 765 0
1 773 -762 0
1 -731 -774 0
1 714 -722 0
1 714 -767 0
1 714 725 0
1 775 731 0
1 740 716 0
1 -776 -716 0
1 -776 777 0
1 778 -729 0
1 779 -780 0
1 -779 -747 0
1 -781 -776 0
1 781 -747 0
1 782 -740 0
1 -777 783 0
1 777 -784 0
1 777 -778 0
1 -738 -781 0
1 738 -733 0
1 -780 785 0
1 780 -735 0
1 780 786 0
1 787 -779 0
1 788 789 0
1 729 -738 0
1 786 778 0
1 790 -757 0
1 -790 -763 0
1 -791 763 0
1 792 773 0
1 792 793 0
1 772 -792 0
1 772 794 0
1 -772 766 0
1 795 -796 0
1 757 790 0
1 797 -759 0
1 770 -798 0
1 796 799 0
1 796 -800 0
1 798 -763 0
1 793 -796 0
1 -793 -772 0
1 801 794 0
1 -784 802 0
1 -784 -803 0
1 784 -777 0
1 -802 782 0
1 -783 799 0
1 -804 -782 0
1 -805 762 0
1 -803 -783 0
